NAME : rnd32_50.tsp.tsp.optbc.tour
TYPE : TOUR
DIMENSION : 50
TOUR_SECTION
1
45
11
38
30
37
46
41
33
18
42
20
2
7
25
24
12
6
21
8
3
28
17
19
27
4
47
15
43
16
23
13
26
40
36
49
10
35
50
39
22
44
29
48
34
31
14
5
9
32
-1